ACTORES = {Actor1, Actor2, Actor3, Actor4} ;

Escenas = [| 1,1,0,0,0,0,10
           | 0,1,1,1,0,1,20
           | 0,0,0,0,1,1,15
           | 1,1,0,0,1,1,13|]; 
           
Duracion = [2,1,1,1,3,4];

Disponibilidad =[|Actor1, 5
                 |Actor2, 8
                 |Actor3, 0
                 |Actor4, 10|];

Evitar =[|Actor1, Actor2
         |Actor2, Actor3|];
         

%Orden de las Escenas: [4, 3, 6, 2, 1, 5]
%Costo: 450
%Tiempo Compartido: 6
%----------
%==========
%Finished in 140msec